Academic license - for non-commercial use only
Optimize a model with 89 rows, 158 columns and 476 nonzeros
Variable types: 0 continuous, 158 integer (158 binary)
Coefficient statistics:
  Matrix range     [1e+00, 1e+00]
  Objective range  [2e+00, 3e+02]
  Bounds range     [1e+00, 1e+00]
  RHS range        [1e+00, 3e+00]
Found heuristic solution: objective 31.2400000
Presolve removed 46 rows and 0 columns
Presolve time: 0.00s
Presolved: 43 rows, 158 columns, 316 nonzeros
Variable types: 0 continuous, 158 integer (158 binary)

Root relaxation: objective 1.087350e+03, 1 iterations, 0.00 seconds

    Nodes    |    Current Node    |     Objective Bounds      |     Work
 Expl Unexpl |  Obj  Depth IntInf | Incumbent    BestBd   Gap | It/Node Time

*    0     0               0    1087.3500000 1087.35000  0.00%     -    0s

Explored 0 nodes (1 simplex iterations) in 0.01 seconds
Thread count was 8 (of 8 available processors)

Solution count 2: 1087.35 31.24 

Optimal solution found (tolerance 1.00e-04)
Best objective 1.087350000000e+03, best bound 1.087350000000e+03, gap 0.0000%
Obj: 1087.35
